\ LP format - for model browsing. Use MPS format to capture full model detail.
Minimize
<<<<<<< HEAD
  5 x[A] + 7 x[B] + 8 x[C] + 4 x[D] + 5 x[E] + 6 x[F] + 3 x[G] + 4 x[H]
   + 9 x[I] + 2 x[J]
Subject To
 A_C: - y[A] + y[C] + x[A] >= 32
 C_J: - y[C] + y[J] + x[C] >= 36
 B_F: - y[B] + y[F] + x[B] >= 28
 F_J: - y[F] + y[J] + x[F] >= 54
 B_E: - y[B] + y[E] + x[B] >= 28
 E_H: - y[E] + y[H] + x[E] >= 32
 B_D: - y[B] + y[D] + x[B] >= 28
 D_G: - y[D] + y[G] + x[D] >= 16
 G_I: - y[G] + y[I] + x[G] >= 17
 E_I: - y[E] + y[I] + x[E] >= 32
 G_H: - y[G] + y[H] + x[G] >= 17
 J_FIN: - y[J] + y[FINAL] + x[J] >= 18
 H_FIN: - y[H] + y[FINAL] + x[H] >= 20
 I_FIN: - y[I] + y[FINAL] + x[I] >= 34
 FIN_MAX: y[FINAL] <= 92
Bounds
 y[A] <= 92
 y[B] <= 92
 y[C] <= 92
 y[D] <= 92
 y[E] <= 92
 y[F] <= 92
 y[G] <= 92
 y[H] <= 92
 y[I] <= 92
 y[J] <= 92
 y[FINAL] <= 92
 x[A] <= 4
 x[B] <= 3
 x[C] <= 5
 x[D] <= 3
 x[E] <= 5
 x[F] <= 7
 x[G] <= 2
 x[H] <= 3
 x[I] <= 4
 x[J] <= 2
Generals
 y[A] y[B] y[C] y[D] y[E] y[F] y[G] y[H] y[I] y[J] y[FINAL] x[A] x[B] x[C]
 x[D] x[E] x[F] x[G] x[H] x[I] x[J]
=======
  100 x[1,2] + 300 x[2,3] + 300 x[2,17] + 200 x[3,4] + 200 x[4,5]
   + 100 x[4,34] + 100 x[5,6] + 100 x[5,7] + 200 x[5,20] + 100 x[6,5]
   + 250 x[7,8] + 100 x[7,31] + 200 x[8,9] + 200 x[9,10] + 100 x[9,23]
   + 200 x[9,27] + 100 x[10,11] + 200 x[11,23] + 200 x[11,12]
   + 100 x[11,33] + 200 x[12,13] + 200 x[12,11] + 100 x[12,32]
   + 100 x[13,14] + 100 x[13,15] + 200 x[13,12] + 250 x[14,1]
   + 100 x[15,13] + 250 x[16,13] + 250 x[16,1] + 100 x[16,25]
   + 100 x[17,16] + 100 x[17,26] + 200 x[18,17] + 100 x[19,18]
   + 200 x[20,19] + 200 x[20,5] + 100 x[21,20] + 150 x[22,21]
   + 200 x[23,22] + 100 x[23,24] + 100 x[23,9] + 100 x[24,23]
   + 100 x[25,16] + 100 x[26,17] + 200 x[27,9] + 200 x[27,28]
   + 200 x[27,29] + 200 x[27,35] + 200 x[28,27] + 200 x[29,27]
   + 200 x[29,30] + 200 x[30,29] + 100 x[31,7] + 100 x[32,12]
   + 100 x[33,11] + 100 x[34,4] + 200 x[35,27] + 200 x[35,36]
   + 200 x[36,35]
Subject To
 node_1: x[1,2] - x[14,1] - x[16,1] = 0
 node_2: - x[1,2] + x[2,3] + x[2,17] = 0
 node_3: - x[2,3] + x[3,4] = 0
 node_4: - x[3,4] + x[4,5] + x[4,34] - x[34,4] = 0
 node_5: - x[4,5] + x[5,6] + x[5,7] + x[5,20] - x[6,5] - x[20,5] = 0
 node_6: - x[5,6] + x[6,5] = 0
 node_7: - x[5,7] + x[7,8] + x[7,31] - x[31,7] = 0
 node_8: - x[7,8] + x[8,9] = 0
 node_9: - x[8,9] + x[9,10] + x[9,23] + x[9,27] - x[23,9] - x[27,9] = 0
 node_10: - x[9,10] + x[10,11] = 0
 node_11: - x[10,11] + x[11,23] + x[11,12] + x[11,33] - x[12,11] - x[33,11]
   = 0
 node_12: - x[11,12] + x[12,13] + x[12,11] + x[12,32] - x[13,12] - x[32,12]
   = 0
 node_13: - x[12,13] + x[13,14] + x[13,15] + x[13,12] - x[15,13] - x[16,13]
   = 0
 node_14: - x[13,14] + x[14,1] = 0
 node_15: - x[13,15] + x[15,13] = 0
 node_16: x[16,13] + x[16,1] + x[16,25] - x[17,16] - x[25,16] = 0
 node_17: - x[2,17] + x[17,16] + x[17,26] - x[18,17] - x[26,17] = 0
 node_18: x[18,17] - x[19,18] = 0
 node_19: x[19,18] - x[20,19] = 0
 node_20: - x[5,20] + x[20,19] + x[20,5] - x[21,20] = 0
 node_21: x[21,20] - x[22,21] = 0
 node_22: x[22,21] - x[23,22] = 0
 node_23: - x[9,23] - x[11,23] + x[23,22] + x[23,24] + x[23,9] - x[24,23]
   = 0
 node_24: - x[23,24] + x[24,23] = 0
 node_25_source_out: x[25,16] = 1
 node_25_source_in: x[16,25] = 0
 node_26: - x[17,26] + x[26,17] = 0
 node_27: - x[9,27] + x[27,9] + x[27,28] + x[27,29] + x[27,35] - x[28,27]
   - x[29,27] - x[35,27] = 0
 node_28_sink_in: x[27,28] = 1
 node_28_sink_out: x[28,27] = 0
 node_29: - x[27,29] + x[29,27] + x[29,30] - x[30,29] = 0
 node_30: - x[29,30] + x[30,29] = 0
 node_31: - x[7,31] + x[31,7] = 0
 node_32: - x[12,32] + x[32,12] = 0
 node_33: - x[11,33] + x[33,11] = 0
 node_34: - x[4,34] + x[34,4] = 0
 node_35: - x[27,35] + x[35,27] + x[35,36] - x[36,35] = 0
Bounds
Binaries
 x[1,2] x[2,3] x[2,17] x[3,4] x[4,5] x[4,34] x[5,6] x[5,7] x[5,20] x[6,5]
 x[7,8] x[7,31] x[8,9] x[9,10] x[9,23] x[9,27] x[10,11] x[11,23] x[11,12]
 x[11,33] x[12,13] x[12,11] x[12,32] x[13,14] x[13,15] x[13,12] x[14,1]
 x[15,13] x[16,13] x[16,1] x[16,25] x[17,16] x[17,26] x[18,17] x[19,18]
 x[20,19] x[20,5] x[21,20] x[22,21] x[23,22] x[23,24] x[23,9] x[24,23]
 x[25,16] x[26,17] x[27,9] x[27,28] x[27,29] x[27,35] x[28,27] x[29,27]
 x[29,30] x[30,29] x[31,7] x[32,12] x[33,11] x[34,4] x[35,27] x[35,36]
 x[36,35]
>>>>>>> 56bb0c43464dfad9b5f7703150671d7b1369133a
End
